75
[7,8,9,10,11,12,13,14,15,16,17,18,19,20,21,22,23,24,25,27,28,29,30,31,32,33,34,35,36,37,38,39,41,42,43,44,46,47,49,50,51,52]
[3,1,2,3,3,3,3,3,3,4,3,2,3,3,2,3,2,1,2,2,2,1,1,2,3,3,1,1,3,3,1,2,2,1,2,6,2,5,2,2,1,3]
